<?xml version = "1.0" encoding="UTF-8" standalone="yes"?>
<CPLEXSolution version="1.2">
 <header
   problemName="inst_12_cut_n8"
   objectiveValue="44.842105263157897"
   solutionTypeValue="1"
   solutionTypeString="basic"
   solutionStatusValue="1"
   solutionStatusString="optimal"
   solutionMethodString="primal"
   primalFeasible="1"
   dualFeasible="1"
   simplexIterations="0"
   writeLevel="1"/>
 <quality
   epRHS="9.9999999999999995e-07"
   epOpt="9.9999999999999995e-07"
   maxPrimalInfeas="0"
   maxDualInfeas="0"
   maxPrimalResidual="2.8421709430404007e-14"
   maxDualResidual="3.5527136788005009e-15"
   maxX="1"
   maxPi="41.710526315789473"
   maxSlack="434"
   maxRedCost="143.28947368421052"
   kappa="5457.6884018956325"/>
 <linearConstraints>
  <constraint name="c0" index="0" status="BS" slack="362.36842105263156" dual="-0"/>
  <constraint name="c1" index="1" status="LL" slack="0" dual="0.21052631578947367"/>
  <constraint name="c2" index="2" status="BS" slack="395.73684210526318" dual="-0"/>
  <constraint name="c3" index="3" status="BS" slack="416.89473684210526" dual="-0"/>
  <constraint name="c4" index="4" status="BS" slack="308.63157894736844" dual="-0"/>
  <constraint name="c5" index="5" status="BS" slack="434" dual="-0"/>
  <constraint name="c6" index="6" status="BS" slack="349.63157894736844" dual="-0"/>
  <constraint name="c7" index="7" status="BS" slack="240.31578947368422" dual="-0"/>
  <constraint name="c8" index="8" status="BS" slack="295.15789473684208" dual="-0"/>
  <constraint name="cut_1" index="9" status="BS" slack="0.15789473684211242" dual="-0"/>
  <constraint name="cut_2" index="10" status="LL" slack="0" dual="41.710526315789473"/>
  <constraint name="cut_3" index="11" status="BS" slack="0.15789473684210464" dual="-0"/>
  <constraint name="cut_4" index="12" status="BS" slack="0.21052631578947301" dual="-0"/>
  <constraint name="cut_5" index="13" status="BS" slack="0.2631578947368336" dual="-0"/>
  <constraint name="cut_6" index="14" status="BS" slack="0.3684210526315651" dual="-0"/>
  <constraint name="cut_7" index="15" status="BS" slack="0.42105263157893535" dual="-0"/>
  <constraint name="cut_8" index="16" status="BS" slack="0.052631578947377466" dual="-0"/>
 </linearConstraints>
 <variables>
  <variable name="x0" index="0" status="BS" value="0.21052631578947367" reducedCost="0"/>
  <variable name="x1" index="1" status="LL" value="0" reducedCost="-143.28947368421052"/>
  <variable name="x2" index="2" status="LL" value="0" reducedCost="-2.3947368421052602"/>
  <variable name="x3" index="3" status="BS" value="0" reducedCost="0"/>
  <variable name="x4" index="4" status="UL" value="1" reducedCost="40.842105263157897"/>
  <variable name="s0" index="5" status="LL" value="0" reducedCost="0"/>
  <variable name="s1" index="6" status="LL" value="0" reducedCost="-0.21052631578947367"/>
  <variable name="s2" index="7" status="LL" value="0" reducedCost="0"/>
  <variable name="s3" index="8" status="LL" value="0" reducedCost="0"/>
  <variable name="s4" index="9" status="LL" value="0" reducedCost="0"/>
  <variable name="s5" index="10" status="LL" value="0" reducedCost="0"/>
  <variable name="s6" index="11" status="LL" value="0" reducedCost="0"/>
  <variable name="s7" index="12" status="LL" value="0" reducedCost="0"/>
  <variable name="s8" index="13" status="LL" value="0" reducedCost="0"/>
 </variables>
 <objectiveValues>
  <objective index="0" name="" value="44.842105263157897"/>
 </objectiveValues>
</CPLEXSolution>
